 &control
    calculation='scf',
    pseudo_dir = '../pseudo/',
    outdir='./tmp/',
    prefix='SrTiO3_OK_HCH_super',
 /
 &system
    ibrav = 1,
    celldm(1) = 14.76,
    nat = 40,
    ntyp = 4,
    ecutwfc = 55.0,
    ecutrho = 600.0,
    nbnd = 240,
    occupations = 'smearing',
    smearing = 'mp',
    degauss = 0.01,
    tot_charge = +0.5,
 /
 &electrons
    mixing_beta = 0.3,
    conv_thr = 1.0d-8,
 /
ATOMIC_SPECIES
Sr  87.62   Sr.pbe-spn-kjpaw_psl.1.0.0.UPF
Ti  47.867  Ti.pbe-spn-kjpaw_psl.1.0.0.UPF
Oh  15.999  O.pbe-n-kjpaw_psl.0.1-HCH.UPF
O   15.999  O.pbe-n-kjpaw_psl.0.1.UPF
ATOMIC_POSITIONS crystal
Sr  0.000  0.000  0.000
Sr  0.500  0.000  0.000
Sr  0.000  0.500  0.000
Sr  0.000  0.000  0.500
Sr  0.500  0.500  0.000
Sr  0.500  0.000  0.500
Sr  0.000  0.500  0.500
Sr  0.500  0.500  0.500
Ti  0.250  0.250  0.250
Ti  0.750  0.250  0.250
Ti  0.250  0.750  0.250
Ti  0.250  0.250  0.750
Ti  0.750  0.750  0.250
Ti  0.750  0.250  0.750
Ti  0.250  0.750  0.750
Ti  0.750  0.750  0.750
Oh  0.250  0.250  0.000
O   0.250  0.000  0.250
O   0.000  0.250  0.250
O   0.750  0.250  0.000
O   0.750  0.000  0.250
O   0.500  0.250  0.250
O   0.250  0.750  0.000
O   0.250  0.500  0.250
O   0.000  0.750  0.250
O   0.250  0.250  0.500
O   0.250  0.000  0.750
O   0.000  0.250  0.750
O   0.750  0.750  0.000
O   0.750  0.500  0.250
O   0.500  0.750  0.250
O   0.750  0.250  0.500
O   0.750  0.000  0.750
O   0.500  0.250  0.750
O   0.250  0.750  0.500
O   0.250  0.500  0.750
O   0.000  0.750  0.750
O   0.750  0.750  0.500
O   0.750  0.500  0.750
O   0.500  0.750  0.750
K_POINTS automatic
2 2 2 1 1 1
